\ Model Staff Scheduling Problem
\ LP format - for model browsing. Use MPS format to capture full model detail.
Minimize
  x[0,0] + x[0,1] + x[0,2] + x[0,3] + x[0,4] + x[0,5] + x[0,6] + x[0,7]
   + x[1,0] + x[1,1] + x[1,2] + x[1,3] + x[1,4] + x[1,5] + x[1,6] + x[1,7]
   + x[2,0] + x[2,1] + x[2,2] + x[2,3] + x[2,4] + x[2,5] + x[2,6] + x[2,7]
   + x[3,0] + x[3,1] + x[3,2] + x[3,3] + x[3,4] + x[3,5] + x[3,6] + x[3,7]
   + x[4,0] + x[4,1] + x[4,2] + x[4,3] + x[4,4] + x[4,5] + x[4,6] + x[4,7]
   + x[5,0] + x[5,1] + x[5,2] + x[5,3] + x[5,4] + x[5,5] + x[5,6] + x[5,7]
   + x[6,0] + x[6,1] + x[6,2] + x[6,3] + x[6,4] + x[6,5] + x[6,6] + x[6,7]
   + x[7,0] + x[7,1] + x[7,2] + x[7,3] + x[7,4] + x[7,5] + x[7,6] + x[7,7]
   + x[8,0] + x[8,1] + x[8,2] + x[8,3] + x[8,4] + x[8,5] + x[8,6] + x[8,7]
   + x[9,0] + x[9,1] + x[9,2] + x[9,3] + x[9,4] + x[9,5] + x[9,6] + x[9,7]
   + x[10,0] + x[10,1] + x[10,2] + x[10,3] + x[10,4] + x[10,5] + x[10,6]
   + x[10,7] + x[11,0] + x[11,1] + x[11,2] + x[11,3] + x[11,4] + x[11,5]
   + x[11,6] + x[11,7] + x[12,0] + x[12,1] + x[12,2] + x[12,3] + x[12,4]
   + x[12,5] + x[12,6] + x[12,7] + x[13,0] + x[13,1] + x[13,2] + x[13,3]
   + x[13,4] + x[13,5] + x[13,6] + x[13,7] + x[14,0] + x[14,1] + x[14,2]
   + x[14,3] + x[14,4] + x[14,5] + x[14,6] + x[14,7] + x[15,0] + x[15,1]
   + x[15,2] + x[15,3] + x[15,4] + x[15,5] + x[15,6] + x[15,7] + x[16,0]
   + x[16,1] + x[16,2] + x[16,3] + x[16,4] + x[16,5] + x[16,6] + x[16,7]
   + x[17,0] + x[17,1] + x[17,2] + x[17,3] + x[17,4] + x[17,5] + x[17,6]
   + x[17,7] + x[18,0] + x[18,1] + x[18,2] + x[18,3] + x[18,4] + x[18,5]
   + x[18,6] + x[18,7] + x[19,0] + x[19,1] + x[19,2] + x[19,3] + x[19,4]
   + x[19,5] + x[19,6] + x[19,7]
Subject To
 R0: x[0,0] <= 3.52
 R1: x[0,1] <= 3.69
 R2: x[0,2] <= 2.1
 R3: x[0,3] <= 0.13
 R4: x[0,4] <= 6.54
 R5: x[0,5] <= 2.81
 R6: x[0,6] <= 5.22
 R7: x[0,7] <= 6.55
 R8: x[1,0] <= 7.02
 R9: x[1,1] <= 0.68
 R10: x[1,2] <= 5.61
 R11: x[1,3] <= 6.41
 R12: x[1,4] <= 4.16
 R13: x[1,5] <= 2.51
 R14: x[1,6] <= 3.5
 R15: x[1,7] <= 7.01
 R16: x[2,0] <= 0.08
 R17: x[2,1] <= 4.67
 R18: x[2,2] <= 5.12
 R19: x[2,3] <= 7.92
 R20: x[2,4] <= 1.07
 R21: x[2,5] <= 7.76
 R22: x[2,6] <= 3.75
 R23: x[2,7] <= 6.58
 R24: x[3,0] <= 2.6
 R25: x[3,1] <= 6.06
 R26: x[3,2] <= 0.74
 R27: x[3,3] <= 3.01
 R28: x[3,4] <= 2.15
 R29: x[3,5] <= 4.67
 R30: x[3,6] <= 1.29
 R31: x[3,7] <= 6.16
 R32: x[4,0] <= 5.11
 R33: x[4,1] <= 3.54
 R34: x[4,2] <= 3.92
 R35: x[4,3] <= 6.05
 R36: x[4,4] <= 6.43
 R37: x[4,5] <= 0.34
 R38: x[4,6] <= 4.66
 R39: x[4,7] <= 1.34
 R40: x[5,0] <= 6.67
 R41: x[5,1] <= 1.25
 R42: x[5,2] <= 1.51
 R43: x[5,3] <= 2.14
 R44: x[5,4] <= 1.25
 R45: x[5,5] <= 3.97
 R46: x[5,6] <= 5.32
 R47: x[5,7] <= 6.36
 R48: x[6,0] <= 5.63
 R49: x[6,1] <= 3.96
 R50: x[6,2] <= 0.66
 R51: x[6,3] <= 5.08
 R52: x[6,4] <= 2.55
 R53: x[6,5] <= 3.65
 R54: x[6,6] <= 4.33
 R55: x[6,7] <= 3.62
 R56: x[7,0] <= 3.87
 R57: x[7,1] <= 1.13
 R58: x[7,2] <= 3.67
 R59: x[7,3] <= 3.37
 R60: x[7,4] <= 3
 R61: x[7,5] <= 5.99
 R62: x[7,6] <= 0.44
 R63: x[7,7] <= 5.43
 R64: x[8,0] <= 3.24
 R65: x[8,1] <= 6.32
 R66: x[8,2] <= 2.32
 R67: x[8,3] <= 0.85
 R68: x[8,4] <= 3.31
 R69: x[8,5] <= 5.38
 R70: x[8,6] <= 3.78
 R71: x[8,7] <= 5.55
 R72: x[9,0] <= 6.87
 R73: x[9,1] <= 7.58
 R74: x[9,2] <= 2.13
 R75: x[9,3] <= 2.98
 R76: x[9,4] <= 5.64
 R77: x[9,5] <= 4.93
 R78: x[9,6] <= 6.78
 R79: x[9,7] <= 2.62
 R80: x[10,0] <= 2.43
 R81: x[10,1] <= 0.38
 R82: x[10,2] <= 1.76
 R83: x[10,3] <= 7.3
 R84: x[10,4] <= 1.78
 R85: x[10,5] <= 4.61
 R86: x[10,6] <= 0.14
 R87: x[10,7] <= 1.78
 R88: x[11,0] <= 1.6
 R89: x[11,1] <= 6.87
 R90: x[11,2] <= 1.91
 R91: x[11,3] <= 0.3
 R92: x[11,4] <= 4.42
 R93: x[11,5] <= 0.84
 R94: x[11,6] <= 0.41
 R95: x[11,7] <= 7.16
 R96: x[12,0] <= 3.21
 R97: x[12,1] <= 6.37
 R98: x[12,2] <= 1.74
 R99: x[12,3] <= 1.55
 R100: x[12,4] <= 5.1
 R101: x[12,5] <= 6.18
 R102: x[12,6] <= 0.53
 R103: x[12,7] <= 7.26
 R104: x[13,0] <= 5.19
 R105: x[13,1] <= 4.16
 R106: x[13,2] <= 7.19
 R107: x[13,3] <= 5.58
 R108: x[13,4] <= 0.62
 R109: x[13,5] <= 0.22
 R110: x[13,6] <= 4.48
 R111: x[13,7] <= 7.55
 R112: x[14,0] <= 0.85
 R113: x[14,1] <= 1.6
 R114: x[14,2] <= 7.75
 R115: x[14,3] <= 0.54
 R116: x[14,4] <= 2.91
 R117: x[14,5] <= 3.12
 R118: x[14,6] <= 7.32
 R119: x[14,7] <= 5.71
 R120: x[15,0] <= 1.69
 R121: x[15,1] <= 0.43
 R122: x[15,2] <= 7.94
 R123: x[15,3] <= 1.9
 R124: x[15,4] <= 3.56
 R125: x[15,5] <= 7.25
 R126: x[15,6] <= 4.61
 R127: x[15,7] <= 6.46
 R128: x[16,0] <= 4.16
 R129: x[16,1] <= 2.18
 R130: x[16,2] <= 3.51
 R131: x[16,3] <= 3.8
 R132: x[16,4] <= 0.29
 R133: x[16,5] <= 5.9
 R134: x[16,6] <= 5.93
 R135: x[16,7] <= 1.89
 R136: x[17,0] <= 5.89
 R137: x[17,1] <= 2.45
 R138: x[17,2] <= 4.35
 R139: x[17,3] <= 1.53
 R140: x[17,4] <= 4.85
 R141: x[17,5] <= 7.58
 R142: x[17,6] <= 1.18
 R143: x[17,7] <= 3.88
 R144: x[18,0] <= 4.23
 R145: x[18,1] <= 7.89
 R146: x[18,2] <= 7.08
 R147: x[18,3] <= 4.89
 R148: x[18,4] <= 6.07
 R149: x[18,5] <= 6.08
 R150: x[18,6] <= 5.38
 R151: x[18,7] <= 7.02
 R152: x[19,0] <= 7.26
 R153: x[19,1] <= 2.05
 R154: x[19,2] <= 0.98
 R155: x[19,3] <= 5.84
 R156: x[19,4] <= 2.93
 R157: x[19,5] <= 5.88
 R158: x[19,6] <= 6.45
 R159: x[19,7] <= 6.1
 R160: x[0,0] + x[0,1] + x[0,2] + x[0,3] + x[0,4] + x[0,5] + x[0,6]
   + x[0,7] + x[1,0] + x[1,1] + x[1,2] + x[1,3] + x[1,4] + x[1,5] + x[1,6]
   + x[1,7] + x[2,0] + x[2,1] + x[2,2] + x[2,3] + x[2,4] + x[2,5] + x[2,6]
   + x[2,7] + x[3,0] + x[3,1] + x[3,2] + x[3,3] + x[3,4] + x[3,5] + x[3,6]
   + x[3,7] + x[4,0] + x[4,1] + x[4,2] + x[4,3] + x[4,4] + x[4,5] + x[4,6]
   + x[4,7] + x[5,0] + x[5,1] + x[5,2] + x[5,3] + x[5,4] + x[5,5] + x[5,6]
   + x[5,7] + x[6,0] + x[6,1] + x[6,2] + x[6,3] + x[6,4] + x[6,5] + x[6,6]
   + x[6,7] + x[7,0] + x[7,1] + x[7,2] + x[7,3] + x[7,4] + x[7,5] + x[7,6]
   + x[7,7] + x[8,0] + x[8,1] + x[8,2] + x[8,3] + x[8,4] + x[8,5] + x[8,6]
   + x[8,7] + x[9,0] + x[9,1] + x[9,2] + x[9,3] + x[9,4] + x[9,5] + x[9,6]
   + x[9,7] + x[10,0] + x[10,1] + x[10,2] + x[10,3] + x[10,4] + x[10,5]
   + x[10,6] + x[10,7] + x[11,0] + x[11,1] + x[11,2] + x[11,3] + x[11,4]
   + x[11,5] + x[11,6] + x[11,7] + x[12,0] + x[12,1] + x[12,2] + x[12,3]
   + x[12,4] + x[12,5] + x[12,6] + x[12,7] + x[13,0] + x[13,1] + x[13,2]
   + x[13,3] + x[13,4] + x[13,5] + x[13,6] + x[13,7] + x[14,0] + x[14,1]
   + x[14,2] + x[14,3] + x[14,4] + x[14,5] + x[14,6] + x[14,7] + x[15,0]
   + x[15,1] + x[15,2] + x[15,3] + x[15,4] + x[15,5] + x[15,6] + x[15,7]
   + x[16,0] + x[16,1] + x[16,2] + x[16,3] + x[16,4] + x[16,5] + x[16,6]
   + x[16,7] + x[17,0] + x[17,1] + x[17,2] + x[17,3] + x[17,4] + x[17,5]
   + x[17,6] + x[17,7] + x[18,0] + x[18,1] + x[18,2] + x[18,3] + x[18,4]
   + x[18,5] + x[18,6] + x[18,7] + x[19,0] + x[19,1] + x[19,2] + x[19,3]
   + x[19,4] + x[19,5] + x[19,6] + x[19,7] >= 190.4
Bounds
End
